% Logging successfully configured
=====UNKNOWN=====
% time elapsed: 300.05 s
%%%mzn-stat: initTime=0.066967588
%%%mzn-stat: nodes=576197
%%%mzn-stat: restarts=0
%%%mzn-stat: peakDepth=126
%%%mzn-stat: solveTime=294.941079541
%%%mzn-stat: variables=4136
%%%mzn-stat: propagators=14234
%%%mzn-stat: failures=478632
%%%mzn-stat: propagations=661720455
%%%mzn-stat: nogoods=478632
%%%mzn-stat: numAtomicConstraintsPropagated=0
%%%mzn-stat: circuitNumber11176PropagationsThatFoundConflict=1880
%%%mzn-stat: circuitNumber11176TotalFixedEdgesAtConflict=259524
%%%mzn-stat: circuitNumber11176NumberOfConflicts=1880
%%%mzn-stat: circuitNumber11176PropagationsThatPruned=52857
%%%mzn-stat: circuitNumber11176PropagationsTotal=487777
%%%mzn-stat: AverageConflictSize=12.95792801149944
%%%mzn-stat: NumUnitNogoodsLearned=0
%%%mzn-stat: AverageLearnedNogoodLength=47.511215296929585
%%%mzn-stat: AverageBacktrackAmount=0
%%%mzn-stat: AverageLbd=28.059567684567686
%%%mzn-stat: 2AutonomousSearchNumBackupCalled=0
%%%mzn-stat: 2AutonomousSearchNumPredicatesRemoved=0
%%%mzn-stat: 2AutonomousSearchNumCalls=0
%%%mzn-stat: 2AutonomousSearchNumPredicatesAdded=2600
%%%mzn-stat: 2AutonomousSearchAverageSizeOfHeap=0
%%%mzn-stat: 2AutonomousSearchNumAssignedPredicatesEncountered=0
%%%mzn-stat-end
